solution status: optimal solution found
objective value:                                    0
shell_i_$_156                                       1 	(obj:0)
shell_j_$_155                                       1 	(obj:0)
shell_i_$_196                                       1 	(obj:0)
shell_i_$_239                                       1 	(obj:0)
shell_i_$_245                                       1 	(obj:0)
shell_j_$_74                                        1 	(obj:0)
shell_j_$_86                                        1 	(obj:0)
shell_j_$_85                                        1 	(obj:0)
shell_i_$_243                                       1 	(obj:0)
shell_j_$_243                                       1 	(obj:0)
shell_i_$_78                                        1 	(obj:0)
shell_j_$_80                                        1 	(obj:0)
shell_j_$_188                                       1 	(obj:0)
shell_i_$_198                                       1 	(obj:0)
shell_i_$_163                                       1 	(obj:0)
shell_j_$_79                                        1 	(obj:0)
shell_i_$_84                                        1 	(obj:0)
shell_j_$_241                                       1 	(obj:0)
shell_j_$_161                                       1 	(obj:0)
shell_j_$_172                                       1 	(obj:0)
shell_j_$_195                                       1 	(obj:0)
shell_j_$_204                                       1 	(obj:0)
shell_j_$_96                                        1 	(obj:0)
shell_j_$_213                                       1 	(obj:0)
shell_j_$_81                                        1 	(obj:0)
shell_i_$_279                                       1 	(obj:0)
shell_j_$_279                                       1 	(obj:0)
shell_i_$_164                                       1 	(obj:0)
shell_j_$_244                                       1 	(obj:0)
shell_i_$_157                                       1 	(obj:0)
shell_j_$_83                                        1 	(obj:0)
shell_i_$_162                                       1 	(obj:0)
shell_j_$_162                                       1 	(obj:0)
shell_j_$_277                                       1 	(obj:0)
shell_j_$_147                                       1 	(obj:0)
shell_i_$_205                                       1 	(obj:0)
shell_j_$_236                                       1 	(obj:0)
shell_i_$_237                                       1 	(obj:0)
shell_j_$_237                                       1 	(obj:0)
shell_j_$_87                                        1 	(obj:0)
shell_j_$_278                                       1 	(obj:0)
shell_j_$_200                                       1 	(obj:0)
shell_i_$_203                                       1 	(obj:0)
shell_j_$_203                                       1 	(obj:0)
shell_j_$_97                                        1 	(obj:0)
shell_j_$_229                                       1 	(obj:0)
shell_i_$_246                                       1 	(obj:0)
shell_j_$_246                                       1 	(obj:0)
shell_j_$_254                                       1 	(obj:0)
shell_i_$_75                                        1 	(obj:0)
shell_i_$_197                                       1 	(obj:0)
shell_i_$_270                                       1 	(obj:0)
shell_j_$_270                                       1 	(obj:0)
shell_i_$_82                                        1 	(obj:0)
shell_j_$_202                                       1 	(obj:0)
shell_j_$_154                                       1 	(obj:0)
shell_j_$_238                                       1 	(obj:0)
shell_j_$_159                                       1 	(obj:0)
$_243_x                                            12 	(obj:0)
$_243_y                                           -12 	(obj:0)
$_96_x                                             12 	(obj:0)
$_96_y                                            -12 	(obj:0)
$_96_z                                              2 	(obj:0)
$_243_z                                            10 	(obj:0)
$_239_y                                            -9 	(obj:0)
$_213_x                                             9 	(obj:0)
$_213_y                                           -12 	(obj:0)
$_213_z                                            10 	(obj:0)
$_239_z                                             1 	(obj:0)
$_78_x                                             12 	(obj:0)
$_81_x                                              8 	(obj:0)
$_81_y                                            -12 	(obj:0)
$_81_z                                             21 	(obj:0)
$_78_y                                             -8 	(obj:0)
$_78_z                                              6 	(obj:0)
$_279_x                                            12 	(obj:0)
$_279_y                                           -12 	(obj:0)
$_279_z                                             8 	(obj:0)
$_155_y                                           -12 	(obj:0)
$_155_z                                            17 	(obj:0)
$_164_x                                            12 	(obj:0)
$_164_y                                            -8 	(obj:0)
$_164_z                                            -4 	(obj:0)
$_80_x                                              4 	(obj:0)
$_80_y                                            -12 	(obj:0)
$_244_x                                             8 	(obj:0)
$_244_y                                           -12 	(obj:0)
$_244_z                                            15 	(obj:0)
$_80_z                                             12 	(obj:0)
$_245_x                                            12 	(obj:0)
$_157_x                                            12 	(obj:0)
$_157_y                                            -8 	(obj:0)
$_157_z                                            -6 	(obj:0)
$_245_y                                            -8 	(obj:0)
$_188_x                                             5 	(obj:0)
$_83_x                                              8 	(obj:0)
$_83_y                                            -12 	(obj:0)
$_83_z                                            -10 	(obj:0)
$_188_y                                           -12 	(obj:0)
$_188_z                                            10 	(obj:0)
$_162_x                                            12 	(obj:0)
$_162_y                                           -12 	(obj:0)
$_162_z                                            21 	(obj:0)
$_245_z                                             1 	(obj:0)
$_156_z                                            -7 	(obj:0)
$_277_x                                             8 	(obj:0)
$_277_y                                           -12 	(obj:0)
$_277_z                                            16 	(obj:0)
$_198_x                                            12 	(obj:0)
$_198_y                                            -8 	(obj:0)
$_147_x                                             9 	(obj:0)
$_147_y                                           -12 	(obj:0)
$_147_z                                             8 	(obj:0)
$_198_z                                            -3 	(obj:0)
$_156_x                                            12 	(obj:0)
$_205_x                                            12 	(obj:0)
$_205_y                                            -8 	(obj:0)
$_74_x                                              4 	(obj:0)
$_163_x                                            12 	(obj:0)
$_236_x                                             8 	(obj:0)
$_236_y                                           -12 	(obj:0)
$_236_z                                            17 	(obj:0)
$_163_y                                            -8 	(obj:0)
$_163_z                                            -2 	(obj:0)
$_237_x                                            12 	(obj:0)
$_237_y                                           -12 	(obj:0)
$_237_z                                            18 	(obj:0)
$_74_y                                            -12 	(obj:0)
$_74_z                                             13 	(obj:0)
$_87_x                                              8 	(obj:0)
$_87_y                                            -12 	(obj:0)
$_87_z                                             -8 	(obj:0)
$_79_x                                              5 	(obj:0)
$_79_y                                            -12 	(obj:0)
$_278_x                                            12 	(obj:0)
$_278_y                                           -12 	(obj:0)
$_278_z                                             5 	(obj:0)
$_79_z                                             13 	(obj:0)
$_196_x                                            12 	(obj:0)
$_200_x                                             7 	(obj:0)
$_200_y                                           -12 	(obj:0)
$_200_z                                            13 	(obj:0)
$_196_y                                            -8 	(obj:0)
$_84_x                                             12 	(obj:0)
$_203_x                                            12 	(obj:0)
$_203_y                                           -12 	(obj:0)
$_203_z                                            17 	(obj:0)
$_84_y                                             -8 	(obj:0)
$_84_z                                              2 	(obj:0)
$_97_x                                              5 	(obj:0)
$_97_y                                            -12 	(obj:0)
$_97_z                                             12 	(obj:0)
$_86_x                                              9 	(obj:0)
$_86_y                                            -12 	(obj:0)
$_229_x                                             9 	(obj:0)
$_229_y                                           -12 	(obj:0)
$_229_z                                             6 	(obj:0)
$_241_x                                             8 	(obj:0)
$_241_y                                           -12 	(obj:0)
$_246_x                                            12 	(obj:0)
$_246_y                                           -12 	(obj:0)
$_246_z                                             4 	(obj:0)
$_241_z                                            10 	(obj:0)
$_86_z                                              1 	(obj:0)
$_254_x                                             8 	(obj:0)
$_254_y                                           -12 	(obj:0)
$_254_z                                             6 	(obj:0)
$_196_z                                            21 	(obj:0)
$_161_x                                             9 	(obj:0)
$_75_x                                             12 	(obj:0)
$_75_y                                             -8 	(obj:0)
$_75_z                                             20 	(obj:0)
$_161_y                                           -12 	(obj:0)
$_161_z                                            13 	(obj:0)
$_197_x                                            12 	(obj:0)
$_197_y                                            -9 	(obj:0)
$_197_z                                            -3 	(obj:0)
$_156_y                                            -8 	(obj:0)
$_85_x                                              8 	(obj:0)
$_270_x                                            12 	(obj:0)
$_270_y                                           -12 	(obj:0)
$_270_z                                             6 	(obj:0)
$_172_x                                             5 	(obj:0)
$_172_y                                           -12 	(obj:0)
$_82_x                                             12 	(obj:0)
$_82_y                                             -8 	(obj:0)
$_82_z                                              3 	(obj:0)
$_172_z                                            11 	(obj:0)
$_85_y                                            -12 	(obj:0)
$_202_x                                             8 	(obj:0)
$_202_y                                           -12 	(obj:0)
$_202_z                                            14 	(obj:0)
$_85_z                                             -6 	(obj:0)
$_195_x                                             9 	(obj:0)
$_154_x                                             9 	(obj:0)
$_154_y                                           -12 	(obj:0)
$_154_z                                            21 	(obj:0)
$_195_y                                           -12 	(obj:0)
$_195_z                                            17 	(obj:0)
$_238_x                                             8 	(obj:0)
$_238_y                                           -12 	(obj:0)
$_238_z                                             1 	(obj:0)
$_155_x                                            10 	(obj:0)
$_239_x                                            12 	(obj:0)
$_159_x                                             5 	(obj:0)
$_159_y                                           -12 	(obj:0)
$_159_z                                             9 	(obj:0)
$_204_x                                            12 	(obj:0)
$_204_y                                           -12 	(obj:0)
